Academic license - for non-commercial use only
Optimize a model with 89 rows, 158 columns and 476 nonzeros
Variable types: 0 continuous, 158 integer (158 binary)
Coefficient statistics:
  Matrix range     [1e+00, 1e+00]
  Objective range  [8e-01, 5e+02]
  Bounds range     [1e+00, 1e+00]
  RHS range        [1e+00, 1e+00]
Found heuristic solution: objective 307.0000000
Presolve removed 45 rows and 0 columns
Presolve time: 0.00s
Presolved: 44 rows, 158 columns, 318 nonzeros
Variable types: 0 continuous, 158 integer (158 binary)

Root relaxation: objective 1.458540e+03, 6 iterations, 0.00 seconds

    Nodes    |    Current Node    |     Objective Bounds      |     Work
 Expl Unexpl |  Obj  Depth IntInf | Incumbent    BestBd   Gap | It/Node Time

*    0     0               0    1458.5400000 1458.54000  0.00%     -    0s

Explored 0 nodes (6 simplex iterations) in 0.00 seconds
Thread count was 8 (of 8 available processors)

Solution count 2: 1458.54 307 

Optimal solution found (tolerance 1.00e-04)
Best objective 1.458540000000e+03, best bound 1.458540000000e+03, gap 0.0000%
Obj: 1458.54
